61
120
84	15
83	14
82	19
81	9
80	19
79	13
78	15
77	16
76	18
75	18
74	11
73	24
72	13
71	23
70	18
69	22
68	8
67	16
66	20
65	18
64	15
63	16
62	18
61	15
60	22
59	9
58	20
57	11
56	17
55	26
54	14
53	16
52	20
51	16
50	14
49	17
48	21
47	14
46	13
45	5
44	15
43	16
42	22
41	14
40	22
39	17
38	18
37	17
36	12
35	12
34	20
33	19
32	19
31	22
30	21
29	11
28	15
27	18
26	14
25	13
24	15
